unsat
(:binary-propagations  12
 :conflicts            1
 :final-checks         1
 :max-generation       1
 :max-memory           23.17
 :memory               20.86
 :mk-bool-var          432
 :mk-clause            150
 :mk-clause-binary     606
 :num-allocs           5936197
 :num-checks           1
 :propagations         12
 :quant-instantiations 93
 :restarts             1
 :rlimit-count         67531
 :time                 0.02)
